p tw 100 13501 2 
1 3 
1 4 
1 5 
1 6 
1 7 
1 8 
1 9 
1 10 
1 11 
1 13 
1 21 
1 22 
1 31 
1 37 
1 41 
1 50 
1 51 
1 54 
1 61 
1 68 
1 71 
1 76 
1 81 
1 89 
1 91 
1 95 
2 3 
2 4 
2 5 
2 6 
2 7 
2 8 
2 9 
2 10 
2 12 
2 19 
2 22 
2 26 
2 32 
2 38 
2 42 
2 47 
2 52 
2 60 
2 62 
2 65 
2 72 
2 73 
2 81 
2 82 
2 92 
2 94 
3 4 
3 5 
3 6 
3 7 
3 8 
3 9 
3 10 
3 13 
3 14 
3 23 
3 25 
3 33 
3 40 
3 43 
3 48 
3 51 
3 53 
3 63 
3 67 
3 73 
3 79 
3 83 
3 86 
3 92 
3 93 
4 5 
4 6 
4 7 
4 8 
4 9 
4 10 
4 11 
4 14 
4 24 
4 28 
4 32 
4 34 
4 43 
4 44 
4 54 
4 55 
4 64 
4 69 
4 74 
4 80 
4 84 
4 87 
4 94 
4 96 
5 6 
5 7 
5 8 
5 9 
5 10 
5 15 
5 20 
5 25 
5 29 
5 35 
5 36 
5 42 
5 45 
5 55 
5 57 
5 61 
5 65 
5 75 
5 78 
5 84 
5 85 
5 93 
5 95 
6 7 
6 8 
6 9 
6 10 
6 16 
6 17 
6 24 
6 26 
6 35 
6 36 
6 41 
6 46 
6 56 
6 58 
6 66 
6 70 
6 72 
6 76 
6 83 
6 86 
6 96 
6 99 
7 8 
7 9 
7 10 
7 12 
7 17 
7 21 
7 27 
7 37 
7 39 
7 45 
7 47 
7 56 
7 57 
7 63 
7 67 
7 74 
7 77 
7 87 
7 90 
7 97 
7 98 
8 9 
8 10 
8 15 
8 18 
8 27 
8 28 
8 33 
8 38 
8 46 
8 48 
8 58 
8 59 
8 64 
8 68 
8 71 
8 78 
8 82 
8 88 
8 98 
8 100 
9 10 
9 16 
9 19 
9 29 
9 30 
9 31 
9 39 
9 44 
9 49 
9 53 
9 59 
9 62 
9 69 
9 75 
9 79 
9 88 
9 89 
9 97 
9 99 
10 18 
10 20 
10 23 
10 30 
10 34 
10 40 
10 49 
10 50 
10 52 
10 60 
10 66 
10 70 
10 77 
10 80 
10 85 
10 90 
10 91 
10 100 
11 12 
11 13 
11 14 
11 15 
11 16 
11 17 
11 18 
11 19 
11 20 
11 21 
11 28 
11 31 
11 32 
11 41 
11 43 
11 51 
11 55 
11 61 
11 69 
11 71 
11 80 
11 81 
11 87 
11 91 
11 96 
12 13 
12 14 
12 15 
12 16 
12 17 
12 18 
12 19 
12 20 
12 21 
12 22 
12 32 
12 39 
12 42 
12 45 
12 52 
12 56 
12 62 
12 63 
12 72 
12 74 
12 82 
12 90 
12 92 
12 98 
13 14 
13 15 
13 16 
13 17 
13 18 
13 19 
13 20 
13 22 
13 23 
13 33 
13 37 
13 43 
13 50 
13 53 
13 54 
13 63 
13 68 
13 73 
13 76 
13 83 
13 89 
13 93 
13 95 
14 15 
14 16 
14 17 
14 18 
14 19 
14 20 
14 24 
14 25 
14 34 
14 40 
14 44 
14 48 
14 51 
14 54 
14 64 
14 67 
14 74 
14 79 
14 84 
14 86 
14 92 
14 94 
15 16 
15 17 
15 18 
15 19 
15 20 
15 25 
15 27 
15 33 
15 35 
15 45 
15 46 
15 55 
15 59 
15 64 
15 65 
15 71 
15 75 
15 82 
15 85 
15 95 
15 100 
16 17 
16 18 
16 19 
16 20 
16 26 
16 30 
16 31 
16 36 
16 44 
16 46 
16 53 
16 56 
16 62 
16 66 
16 75 
16 76 
16 86 
16 88 
16 96 
16 97 
17 18 
17 19 
17 20 
17 24 
17 27 
17 35 
17 37 
17 41 
17 47 
17 57 
17 58 
17 67 
17 70 
17 72 
17 77 
17 83 
17 87 
17 97 
17 99 
18 19 
18 20 
18 23 
18 28 
18 34 
18 38 
18 48 
18 49 
18 52 
18 58 
18 66 
18 68 
18 77 
18 78 
18 85 
18 88 
18 91 
18 98 
19 20 
19 26 
19 29 
19 38 
19 39 
19 47 
19 49 
19 59 
19 60 
19 65 
19 69 
19 73 
19 79 
19 81 
19 89 
19 94 
19 99 
20 29 
20 30 
20 36 
20 40 
20 42 
20 50 
20 57 
20 60 
20 61 
20 70 
20 78 
20 80 
20 84 
20 90 
20 93 
20 100 
21 22 
21 23 
21 24 
21 25 
21 26 
21 27 
21 28 
21 29 
21 30 
21 31 
21 39 
21 41 
21 45 
21 51 
21 56 
21 61 
21 63 
21 71 
21 74 
21 81 
21 90 
21 91 
21 98 
22 23 
22 24 
22 25 
22 26 
22 27 
22 28 
22 29 
22 30 
22 32 
22 37 
22 42 
22 50 
22 52 
22 54 
22 62 
22 68 
22 72 
22 76 
22 82 
22 89 
22 92 
22 95 
23 24 
23 25 
23 26 
23 27 
23 28 
23 29 
23 30 
23 33 
23 34 
23 43 
23 49 
23 52 
23 53 
23 63 
23 66 
23 73 
23 77 
23 83 
23 85 
23 91 
23 93 
24 25 
24 26 
24 27 
24 28 
24 29 
24 30 
24 34 
24 35 
24 41 
24 44 
24 54 
24 58 
24 64 
24 70 
24 72 
24 74 
24 83 
24 84 
24 94 
24 99 
25 26 
25 27 
25 28 
25 29 
25 30 
25 35 
25 40 
25 45 
25 48 
25 51 
25 55 
25 65 
25 67 
25 75 
25 79 
25 85 
25 86 
25 92 
25 95 
26 27 
26 28 
26 29 
26 30 
26 36 
26 38 
26 46 
26 47 
26 56 
26 60 
26 65 
26 66 
26 73 
26 76 
26 81 
26 86 
26 94 
26 96 
27 28 
27 29 
27 30 
27 33 
27 37 
27 46 
27 47 
27 57 
27 59 
27 64 
27 67 
27 71 
27 77 
27 82 
27 87 
27 97 
27 100 
28 29 
28 30 
28 32 
28 38 
28 43 
28 48 
28 55 
28 58 
28 68 
28 69 
28 78 
28 80 
28 87 
28 88 
28 96 
28 98 
29 30 
29 36 
29 39 
29 42 
29 49 
29 57 
29 59 
29 61 
29 69 
29 78 
29 79 
29 84 
29 89 
29 93 
29 99 
30 31 
30 40 
30 44 
30 50 
30 53 
30 60 
30 62 
30 70 
30 75 
30 80 
30 88 
30 90 
30 97 
30 100 
31 32 
31 33 
31 34 
31 35 
31 36 
31 37 
31 38 
31 39 
31 40 
31 41 
31 44 
31 51 
31 53 
31 61 
31 62 
31 71 
31 75 
31 81 
31 88 
31 91 
31 97 
32 33 
32 34 
32 35 
32 36 
32 37 
32 38 
32 39 
32 40 
32 42 
32 43 
32 52 
32 55 
32 62 
32 69 
32 72 
32 80 
32 82 
32 87 
32 92 
32 96 
33 34 
33 35 
33 36 
33 37 
33 38 
33 39 
33 40 
33 43 
33 46 
33 53 
33 59 
33 63 
33 64 
33 71 
33 73 
33 82 
33 83 
33 93 
33 100 
34 35 
34 36 
34 37 
34 38 
34 39 
34 40 
34 44 
34 49 
34 52 
34 54 
34 64 
34 66 
34 74 
34 77 
34 84 
34 85 
34 91 
34 94 
35 36 
35 37 
35 38 
35 39 
35 40 
35 41 
35 45 
35 55 
35 58 
35 65 
35 70 
35 72 
35 75 
35 83 
35 85 
35 95 
35 99 
36 37 
36 38 
36 39 
36 40 
36 42 
36 46 
36 56 
36 57 
36 61 
36 66 
36 76 
36 78 
36 84 
36 86 
36 93 
36 96 
37 38 
37 39 
37 40 
37 47 
37 50 
37 54 
37 57 
37 67 
37 68 
37 76 
37 77 
37 87 
37 89 
37 95 
37 97 
38 39 
38 40 
38 47 
38 48 
38 58 
38 60 
38 65 
38 68 
38 73 
38 78 
38 81 
38 88 
38 94 
38 98 
39 40 
39 45 
39 49 
39 56 
39 59 
39 63 
39 69 
39 74 
39 79 
39 89 
39 90 
39 98 
39 99 
40 48 
40 50 
40 51 
40 60 
40 67 
40 70 
40 79 
40 80 
40 86 
40 90 
40 92 
40 100 
41 42 
41 43 
41 44 
41 45 
41 46 
41 47 
41 48 
41 49 
41 50 
41 51 
41 58 
41 61 
41 70 
41 71 
41 72 
41 81 
41 83 
41 91 
41 99 
42 43 
42 44 
42 45 
42 46 
42 47 
42 48 
42 49 
42 50 
42 52 
42 57 
42 61 
42 62 
42 72 
42 78 
42 82 
42 84 
42 92 
42 93 
43 44 
43 45 
43 46 
43 47 
43 48 
43 49 
43 50 
43 53 
43 55 
43 63 
43 69 
43 73 
43 80 
43 83 
43 87 
43 93 
43 96 
44 45 
44 46 
44 47 
44 48 
44 49 
44 50 
44 53 
44 54 
44 62 
44 64 
44 74 
44 75 
44 84 
44 88 
44 94 
44 97 
45 46 
45 47 
45 48 
45 49 
45 50 
45 55 
45 56 
45 63 
45 65 
45 74 
45 75 
45 85 
45 90 
45 95 
45 98 
46 47 
46 48 
46 49 
46 50 
46 56 
46 59 
46 64 
46 66 
46 71 
46 76 
46 82 
46 86 
46 96 
46 100 
47 48 
47 49 
47 50 
47 57 
47 60 
47 65 
47 67 
47 73 
47 77 
47 81 
47 87 
47 94 
47 97 
48 49 
48 50 
48 51 
48 58 
48 67 
48 68 
48 78 
48 79 
48 86 
48 88 
48 92 
48 98 
49 50 
49 52 
49 59 
49 66 
49 69 
49 77 
49 79 
49 85 
49 89 
49 91 
49 99 
50 54 
50 60 
50 68 
50 70 
50 76 
50 80 
50 89 
50 90 
50 95 
50 100 
51 52 
51 53 
51 54 
51 55 
51 56 
51 57 
51 58 
51 59 
51 60 
51 61 
51 67 
51 71 
51 79 
51 81 
51 86 
51 91 
51 92 
52 53 
52 54 
52 55 
52 56 
52 57 
52 58 
52 59 
52 60 
52 62 
52 66 
52 72 
52 77 
52 82 
52 85 
52 91 
52 92 
53 54 
53 55 
53 56 
53 57 
53 58 
53 59 
53 60 
53 62 
53 63 
53 73 
53 75 
53 83 
53 88 
53 93 
53 97 
54 55 
54 56 
54 57 
54 58 
54 59 
54 60 
54 64 
54 68 
54 74 
54 76 
54 84 
54 89 
54 94 
54 95 
55 56 
55 57 
55 58 
55 59 
55 60 
55 65 
55 69 
55 75 
55 80 
55 85 
55 87 
55 95 
55 96 
56 57 
56 58 
56 59 
56 60 
56 63 
56 66 
56 74 
56 76 
56 86 
56 90 
56 96 
56 98 
57 58 
57 59 
57 60 
57 61 
57 67 
57 77 
57 78 
57 84 
57 87 
57 93 
57 97 
58 59 
58 60 
58 68 
58 70 
58 72 
58 78 
58 83 
58 88 
58 98 
58 99 
59 60 
59 64 
59 69 
59 71 
59 79 
59 82 
59 89 
59 99 
59 100 
60 65 
60 70 
60 73 
60 80 
60 81 
60 90 
60 94 
60 100 
61 62 
61 63 
61 64 
61 65 
61 66 
61 67 
61 68 
61 69 
61 70 
61 71 
61 78 
61 81 
61 84 
61 91 
61 93 
62 63 
62 64 
62 65 
62 66 
62 67 
62 68 
62 69 
62 70 
62 72 
62 75 
62 82 
62 88 
62 92 
62 97 
63 64 
63 65 
63 66 
63 67 
63 68 
63 69 
63 70 
63 73 
63 74 
63 83 
63 90 
63 93 
63 98 
64 65 
64 66 
64 67 
64 68 
64 69 
64 70 
64 71 
64 74 
64 82 
64 84 
64 94 
64 100 
65 66 
65 67 
65 68 
65 69 
65 70 
65 73 
65 75 
65 81 
65 85 
65 94 
65 95 
66 67 
66 68 
66 69 
66 70 
66 76 
66 77 
66 85 
66 86 
66 91 
66 96 
67 68 
67 69 
67 70 
67 77 
67 79 
67 86 
67 87 
67 92 
67 97 
68 69 
68 70 
68 76 
68 78 
68 88 
68 89 
68 95 
68 98 
69 70 
69 79 
69 80 
69 87 
69 89 
69 96 
69 99 
70 72 
70 80 
70 83 
70 90 
70 99 
70 100 
71 72 
71 73 
71 74 
71 75 
71 76 
71 77 
71 78 
71 79 
71 80 
71 81 
71 82 
71 91 
71 100 
72 73 
72 74 
72 75 
72 76 
72 77 
72 78 
72 79 
72 80 
72 82 
72 83 
72 92 
72 99 
73 74 
73 75 
73 76 
73 77 
73 78 
73 79 
73 80 
73 81 
73 83 
73 93 
73 94 
74 75 
74 76 
74 77 
74 78 
74 79 
74 80 
74 84 
74 90 
74 94 
74 98 
75 76 
75 77 
75 78 
75 79 
75 80 
75 85 
75 88 
75 95 
75 97 
76 77 
76 78 
76 79 
76 80 
76 86 
76 89 
76 95 
76 96 
77 78 
77 79 
77 80 
77 85 
77 87 
77 91 
77 97 
78 79 
78 80 
78 84 
78 88 
78 93 
78 98 
79 80 
79 86 
79 89 
79 92 
79 99 
80 87 
80 90 
80 96 
80 100 
81 82 
81 83 
81 84 
81 85 
81 86 
81 87 
81 88 
81 89 
81 90 
81 91 
81 94 
82 83 
82 84 
82 85 
82 86 
82 87 
82 88 
82 89 
82 90 
82 92 
82 100 
83 84 
83 85 
83 86 
83 87 
83 88 
83 89 
83 90 
83 93 
83 99 
84 85 
84 86 
84 87 
84 88 
84 89 
84 90 
84 93 
84 94 
85 86 
85 87 
85 88 
85 89 
85 90 
85 91 
85 95 
86 87 
86 88 
86 89 
86 90 
86 92 
86 96 
87 88 
87 89 
87 90 
87 96 
87 97 
88 89 
88 90 
88 97 
88 98 
89 90 
89 95 
89 99 
90 98 
90 100 
91 92 
91 93 
91 94 
91 95 
91 96 
91 97 
91 98 
91 99 
91 100 
92 93 
92 94 
92 95 
92 96 
92 97 
92 98 
92 99 
92 100 
93 94 
93 95 
93 96 
93 97 
93 98 
93 99 
93 100 
94 95 
94 96 
94 97 
94 98 
94 99 
94 100 
95 96 
95 97 
95 98 
95 99 
95 100 
96 97 
96 98 
96 99 
96 100 
97 98 
97 99 
97 100 
98 99 
98 100 
99 100 
